
Gurobi 11.0.2 (win64, gurobi_cl) logging started Thu May 23 17:59:41 2024

Set parameter Username
Set parameter LogFile to value "gurobi.log"
Using license file c:\gurobi1102\gurobi.lic

Gurobi 11.0.2 (win64, gurobi_cl) logging started Thu May 23 18:01:20 2024

Set parameter Username
Set parameter LogFile to value "gurobi.log"
Using license file c:\gurobi1102\gurobi.lic

Gurobi 11.0.2 (win64, gurobi_cl) logging started Thu May 23 18:06:51 2024

Set parameter Username
Set parameter LogFile to value "gurobi.log"
Using license file c:\gurobi1102\gurobi.lic

Gurobi 11.0.2 (win64, gurobi_cl) logging started Thu May 23 18:09:42 2024

Set parameter Username
Set parameter LogFile to value "gurobi.log"
Using license file c:\gurobi1102\gurobi.lic
